single conp
name final
cell
11.902000 11.902000 29.692000  90.000000 90.000000 120.000000
cartesian
Ge   core     6.091000    3.873000    1.006000
Si   core     5.503000    3.339000   10.903000
Ge   core     6.259000    3.096000   20.801000
Si   core    -0.140000    6.435000   15.852000
Ge   core     0.448000    6.969000   25.749000
Si   core    -0.308000    7.211000    5.955000
Ge   core     0.308000    7.211000    8.891000
Si   core     0.140000    6.435000   28.686000
Si   core    -0.448000    6.969000   18.789000
Si   core     5.643000    3.096000   23.737000
Ge   core     5.811000    3.873000   13.840000
Ge   core     6.399000    3.339000    3.943000
Si   core     3.852000    4.261000   28.708000
Si   core     6.286000    1.205000    8.914000
Si   core     7.716000    4.841000   18.811000
Si   core     2.100000    6.046000   13.862000
Si   core    -0.335000    9.103000   23.760000
Si   core    -1.764000    5.466000    3.965000
Si   core     1.764000    5.466000   10.881000
Si   core    -2.100000    6.046000    0.984000
Si   core     0.335000    9.103000   20.778000
Si   core     4.187000    4.841000   25.727000
Si   core     8.051000    4.261000   15.830000
Si   core     5.616000    1.205000    5.932000
Si   core     1.210000    4.064000   25.274000
Si   core     1.826000    9.323000    5.479000
Si   core    -3.036000    7.228000   15.376000
Si   core     4.741000    6.243000   10.428000
Si   core     4.125000    0.984000   20.325000
Si   core     8.987000    3.080000    0.530000
Si   core     2.915000    3.080000   14.316000
Si   core     7.161000    6.243000    4.418000
Si   core     7.777000    0.984000   24.213000
Si   core     3.036000    7.228000   29.162000
Si   core    -1.210000    4.064000   19.264000
Si   core    -1.826000    9.323000    9.367000
Si   core     0.965000    3.452000   28.270000
Si   core     2.479000    9.417000    8.475000
Si   core    -3.444000    7.746000   18.373000
Si   core     4.986000    6.856000   13.424000
Si   core     3.472000    0.891000   23.321000
Si   core     9.395000    2.561000    3.527000
Si   core     2.507000    2.561000   11.319000
Si   core     6.916000    6.856000    1.422000
Si   core     8.430000    0.891000   21.217000
Si   core     3.444000    7.746000   26.165000
Si   core    -0.965000    3.452000   16.268000
Si   core    -2.479000    9.417000    6.371000
Si   core    10.816000    1.267000   28.711000
Si   core     5.397000    8.734000    8.917000
Si   core     1.640000    0.307000   18.814000
Si   core    -4.865000    9.041000   13.865000
Si   core     0.554000    1.574000   23.763000
Si   core     4.311000   10.000000    3.968000
Ge   core    -4.311000   10.000000   10.878000
Si   core     4.865000    9.041000    0.981000
Ge   core    -0.554000    1.574000   20.775000
Si   core    10.262000    0.307000   25.724000
Ge   core     1.086000    1.267000   15.827000
Si   core     6.505000    8.734000    5.929000
 O   core    10.998000    0.000000    0.000000
 O   core     6.403000    9.524000    9.897000
 O   core     0.452000    0.783000   19.795000
 O   core     0.905000    0.000000   14.846000
 O   core    -0.452000    0.783000   24.743000
 O   core     5.499000    9.524000    4.949000
 O   core     0.546000    5.989000    9.875000
 O   core     0.492000    7.786000   19.772000
 O   core    -1.038000    6.840000   29.669000
 O   core     5.405000    4.319000   24.721000
 O   core     5.459000    2.521000    4.926000
 O   core     6.989000    3.467000   14.823000
 O   core     4.913000    3.467000    0.023000
 O   core     6.497000    4.319000   19.817000
 O   core     6.443000    2.521000    9.920000
 O   core     1.038000    6.840000   14.869000
 O   core    -0.546000    5.989000    4.971000
 O   core    -0.492000    7.786000   24.766000
 O   core     0.286000    2.208000   28.856000
 O   core     3.896000    9.451000    9.061000
 O   core    -4.182000    8.956000   18.959000
 O   core     5.665000    8.100000   14.010000
 O   core     2.055000    0.857000   23.907000
 O   core    10.133000    1.351000    4.113000
 O   core     1.769000    1.351000   10.733000
 O   core     6.237000    8.100000    0.836000
 O   core     9.847000    0.857000   20.631000
 O   core     4.182000    8.956000   25.579000
 O   core    -0.286000    2.208000   15.682000
 O   core    -3.896000    9.451000    5.785000
 O   core     5.951000    8.840000    7.423000
 O   core     1.271000    0.734000   17.320000
 O   core    10.631000    0.734000   27.218000
 O   core     0.000000    1.468000   22.269000
 O   core     4.680000    9.574000    2.474000
 O   core    -4.680000    9.574000   12.372000
 O   core     9.479000    2.099000   29.058000
 O   core     5.345000    7.160000    9.263000
 O   core     3.029000    1.049000   19.161000
 O   core    -3.528000    8.209000   14.212000
 O   core     0.606000    3.148000   24.109000
 O   core     2.922000    9.258000    4.315000
 O   core    -2.922000    9.258000   10.531000
 O   core     3.528000    8.209000    0.634000
 O   core    -0.606000    3.148000   20.429000
 O   core     8.873000    1.049000   25.377000
 O   core     2.423000    2.099000   15.480000
 O   core     6.557000    7.160000    5.583000
 O   core    -0.001000    6.572000    7.423000
 O   core     0.260000    7.020000   17.320000
 O   core    -0.259000    7.023000   27.218000
 O   core     5.952000    3.735000   22.269000
 O   core     5.691000    3.287000    2.474000
 O   core     6.210000    3.285000   12.372000
 O   core     2.466000    3.363000   28.771000
 O   core     7.757000    0.454000    8.976000
 O   core     7.631000    6.491000   18.874000
 O   core     3.486000    6.944000   13.925000
 O   core    -1.806000    9.854000   23.822000
 O   core    -1.680000    3.817000    4.028000
 O   core     1.680000    3.817000   10.818000
 O   core    -3.486000    6.944000    0.921000
 O   core     1.806000    9.854000   20.716000
 O   core     4.271000    6.491000   25.664000
 O   core     9.437000    3.363000   15.767000
 O   core     4.146000    0.454000    5.870000
 O   core     7.371000    3.094000    0.337000
 O   core     5.537000    4.836000   10.234000
 O   core     4.945000    2.377000   20.132000
 O   core    -1.420000    7.213000   15.183000
 O   core     0.414000    5.471000   25.080000
 O   core     1.006000    7.931000    5.286000
 O   core    -1.006000    7.931000    9.560000
 O   core     1.420000    7.213000   29.355000
 O   core    -0.414000    5.471000   19.458000
 O   core     6.957000    2.377000   24.406000
 O   core     4.531000    3.094000   14.509000
 O   core     6.365000    4.836000    4.612000
 O   core     6.227000    5.454000    0.919000
 O   core     4.066000    2.666000   10.816000
 O   core     7.561000    2.188000   20.714000
 O   core    -0.276000    4.854000   15.765000
 O   core     1.885000    7.642000   25.662000
 O   core    -1.610000    8.119000    5.868000
 O   core     1.610000    8.119000    8.978000
 O   core     0.276000    4.854000   28.773000
 O   core    -1.885000    7.642000   18.876000
 O   core     4.341000    2.188000   23.824000
 O   core     5.676000    5.454000   13.927000
 O   core     7.836000    2.666000    4.030000
 O   core     0.863000    3.324000   26.683000
 O   core     2.640000    9.393000    6.889000
 O   core    -3.504000    7.898000   16.786000
 O   core     5.088000    6.983000   11.837000
 O   core     3.311000    0.914000   21.735000
 O   core     9.455000    2.410000    1.940000
 O   core     2.447000    2.410000   12.906000
 O   core     6.815000    6.983000    3.009000
 O   core     8.592000    0.914000   22.803000
 O   core     3.504000    7.898000   27.752000
 O   core    -0.863000    3.324000   17.855000
 O   core    -2.640000    9.393000    7.957000
 O   core     3.646000    5.764000   29.346000
 O   core     5.088000    0.275000    9.551000
 O   core     9.120000    4.268000   19.449000
 O   core     2.305000    4.544000   14.500000
 O   core     0.863000   10.032000   24.397000
 O   core    -3.169000    6.039000    4.603000
 O   core     3.169000    6.039000   10.243000
 O   core    -2.305000    4.544000    0.346000
 O   core    -0.863000   10.032000   20.141000
 O   core     2.782000    4.268000   25.089000
 O   core     8.256000    5.764000   15.192000
 O   core     6.815000    0.275000    5.295000
 O   core     5.950000    1.766000    7.423000
 O   core     7.398000    4.270000   17.320000
 O   core     4.505000    4.271000   27.218000
 O   core     0.001000    8.542000   22.269000
 O   core    -1.447000    6.037000    2.474000
 O   core     1.446000    6.036000   12.372000
 F   core     0.000000    9.297000    7.423000
 F   core    -2.101000    5.659000   17.320000
 F   core     2.101000    5.659000   27.218000
 F   core     5.951000    1.010000   22.269000
 F   core     8.052000    4.649000    2.474000
 F   core     3.850000    4.649000   12.372000
 C   core     9.299000    5.069000   24.370000
 N   core     9.167000    5.299000   25.692000
 C   core     8.614000    6.532000   25.799000
 N   core     8.397000    7.093000   24.581000
 C   core     8.826000    6.172000   23.689000
 C   core     7.606000    6.671000   26.910000
 C   core     8.969000    4.168000   26.606000
 H   core     9.619000    3.311000   26.323000
 H   core     9.151000    4.415000   27.676000
 H   core     7.924000    3.842000   26.403000
 H   core     6.480000    7.065000   23.919000
 C   core     7.211000    7.863000   24.176000
 H   core     7.408000    8.415000   23.234000
 H   core     6.868000    8.534000   24.994000
 H   core    10.088000    4.405000   24.038000
 C   core     8.753000    6.337000   22.203000
 H   core     7.990000    6.222000   27.852000
 H   core     6.742000    6.059000   26.578000
 C   core     7.239000    8.146000   27.161000
 H   core     6.485000    8.242000   27.975000
 H   core     6.853000    8.519000   26.184000
 H   core     8.151000    8.712000   27.453000
 H   core     9.575000    5.896000   21.602000
 H   core     7.807000    5.844000   21.906000
 H   core     8.692000    7.385000   21.845000
 C   core    -1.594000    4.366000   11.779000
 N   core    -1.960000    5.423000   11.026000
 C   core    -2.103000    4.947000    9.765000
 N   core    -1.831000    3.618000    9.696000
 C   core    -1.514000    3.258000   10.961000
 C   core    -2.434000    5.643000    8.471000
 C   core    -2.598000    6.643000   11.537000
 H   core    -1.918000    7.286000   12.137000
 H   core    -2.981000    7.270000   10.701000
 H   core    -3.445000    6.324000   12.186000
 H   core    -1.522000    3.065000    7.684000
 C   core    -0.928000    3.185000    8.618000
 H   core    -0.585000    2.158000    8.858000
 H   core    -0.099000    3.926000    8.594000
 H   core    -2.040000    4.254000   12.761000
 C   core    -0.639000    2.094000   11.306000
 H   core    -1.895000    6.595000    8.271000
 H   core    -3.524000    5.852000    8.462000
 C   core    -1.998000    4.558000    7.467000
 H   core    -2.101000    5.028000    6.462000
 H   core    -2.623000    3.640000    7.563000
 H   core    -0.945000    4.281000    7.689000
 H   core    -1.159000    1.166000   10.990000
 H   core     0.318000    2.187000   10.758000
 H   core    -0.511000    2.063000   12.408000
 C   core     4.670000    7.165000   19.135000
 N   core     4.174000    6.972000   20.375000
 C   core     3.436000    5.837000   20.305000
 N   core     3.446000    5.308000   19.053000
 C   core     4.221000    6.143000   18.325000
 C   core     2.775000    5.078000   21.425000
 C   core     4.451000    7.787000   21.563000
 H   core     4.658000    8.833000   21.246000
 H   core     3.560000    7.799000   22.230000
 H   core     5.328000    7.358000   22.099000
 H   core     2.211000    3.558000   19.418000
 C   core     2.728000    4.107000   18.599000
 H   core     2.009000    4.435000   17.822000
 H   core     3.506000    3.445000   18.158000
 H   core     4.609000    8.162000   18.715000
 C   core     4.311000    6.271000   16.837000
 H   core     1.881000    4.539000   21.045000
 H   core     3.473000    4.352000   21.893000
 C   core     2.332000    6.142000   22.448000
 H   core     3.141000    6.522000   23.113000
 H   core     1.668000    5.723000   23.239000
 H   core     1.839000    6.980000   21.909000
 H   core     3.480000    6.901000   16.457000
 H   core     5.215000    6.818000   16.506000
 H   core     4.229000    5.268000   16.370000
 C   core     6.121000    0.309566   -0.629000
 N   core     5.918000   -0.062434    0.651000
 C   core     4.615000   -0.425434    0.729000
 N   core     3.983000   -0.289434   -0.466000
 C   core     4.931000    0.170566   -1.314000
 C   core     3.848000   -0.999434    1.892000
 C   core     6.880000   -0.038434    1.760000
 H   core     6.321000   -0.509434    2.598000
 H   core     7.119000    0.991566    2.108000
 H   core     7.809000   -0.611434    1.538000
 H   core     2.239000    0.319566   -1.600000
 C   core     2.590000    0.175566   -0.554000
 H   core     2.567000    1.175566   -0.076000
 H   core     1.901000   -0.433434    0.073000
 H   core     7.080000    0.697566   -0.949000
 C   core     4.710000    0.830566   -2.638000
 H   core     2.767000   -1.164434    1.697000
 H   core     4.315000   -1.908434    2.326000
 C   core     4.020000    0.111566    2.946000
 H   core     3.858000    1.114566    2.488000
 H   core     5.069000    0.094566    3.323000
 H   core     3.313000   -0.042434    3.790000
 H   core     4.144000    0.176566   -3.334000
 H   core     5.685000    0.993566   -3.136000
 H   core     4.197000    1.812566   -2.569000
 C   core     2.146000    4.191000    6.637000
 N   core     2.430000    5.067000    5.651000
 C   core     2.496000    4.333000    4.513000
 N   core     2.268000    3.015000    4.752000
 C   core     2.048000    2.931000    6.083000
 C   core     3.165000    4.757000    3.232000
 C   core     3.375000    6.149000    5.948000
 H   core     3.150000    6.504000    6.978000
 H   core     4.327000    5.573000    5.965000
 H   core     3.418000    6.964000    5.191000
 H   core     2.004000    2.236000    2.854000
 C   core     1.418000    2.284000    3.799000
 H   core     0.507000    2.880000    3.589000
 H   core     1.265000    1.276000    4.244000
 H   core     1.786000    4.453000    7.625000
 C   core     0.996000    1.993000    6.583000
 H   core     3.163000    3.869000    2.564000
 H   core     4.210000    5.087000    3.409000
 C   core     2.272000    5.909000    2.732000
 H   core     2.533000    6.110000    1.667000
 H   core     2.418000    6.830000    3.343000
 H   core     1.178000    5.726000    2.809000
 H   core     0.156000    2.499000    7.104000
 H   core     0.542000    1.545000    5.678000
 H   core     1.430000    1.207000    7.236000
 C   core     1.608000    9.431000   13.823000
 N   core     2.264000    9.655000   14.981000
 C   core     1.305000    9.758000   15.934000
 N   core     0.059000    9.611000   15.411000
 C   core     0.255000    9.405000   14.089000
 C   core     1.669000    9.910000   17.387000
 C   core     3.581000   10.263000   15.202000
 H   core     3.551000   11.346000   14.948000
 H   core     4.272000    9.683000   14.551000
 H   core     3.846000   10.226000   16.282000
 H   core    -2.047000    9.980000   15.433000
 C   core    -1.122000   10.285000   15.972000
 H   core    -1.002000   11.386000   16.006000
 H   core    -1.227000    9.976000   17.036000
 H   core     1.958000    9.964000   12.947000
 C   core    -0.738000    9.608000   12.988000
 H   core     2.438000    9.155000   17.663000
 H   core     0.805000    9.744000   18.064000
 C   core     2.207000   11.343000   17.568000
 H   core     2.886000   11.595000   16.721000
 H   core     2.697000   11.432000   18.565000
 H   core     1.397000   12.099000   17.474000
 H   core    -1.727000    9.284000   13.375000
 H   core    -0.459000    8.991000   12.112000
 H   core    -0.845000   10.674000   12.700000

space
1
output cif c.cif
