SimulationType                   MD
NumberOfCycles                   100
NumberOfInitializationCycles     100
PrintEvery                       10
RestartFile                      no

CutOff                           10.0
ChargeMethod                     Ewald
Forcefield                       local
EwaldPrecision                   1e-8

Framework                        0
Frameworkname                    stw-00
RemoveAtomNumberCodeFromLabel    yes
UnitCells                        2 2 1
RestrictFrameworkAtomsToBox      yes
ExternalTemperature              800
ExternalPressure                 0
Movies                           yes
WriteMoviesEvery                 10
FlexibleFramework                yes

component 0 MoleculeName                   2e134tmi_cat1
            MoleculeDefinition             local
            IdealGasRosenbluthWeight       3.57076e-9
            RotationProbability            1
            RandomTranslationProbability   1
            ReinsertionProbability         1
            TranslationProbability         1
            ExtraFrameworkMolecule         yes
            CreateNumberOfMolecules        24

