SimulationType                MC
NumberOfCycles                5000
NumberOfInitializationCycles  100
PrintEvery                    50
RestartFile                   no
Forcefield                    local

ModifyFrameworkAtomConnectedTo O   Oss Si
ModifyFrameworkAtomConnectedTo O   Ogg Ge
ModifyFrameworkAtomConnectedTo Oss Ogg Ge
ModifyFrameworkAtomConnectedTo Ogg Ogs Si
     
Framework 0
FrameworkName       c0001
UnitCells           1 1 1
ExternalTemperature 300.0
Movies yes
WriteMoviesEvery                 100
FlexibleFramework                yes
FrameworkDefinitions             local

component 0 MoleculeName                   2e134tmi_flexible
            MoleculeDefinition             Local
            RandomTranslationProbability   1.0
            TranslationProbability         1.0
            RotationProbability            1.0
            RegrowProbability              10.0
            ReinsertionProbability         10.0
            ExtraFrameworkMolecule         yes
            CreateNumberOfMolecules        6

component 1 MoleculeName                   fluorine
            MoleculeDefinition             Local
            ExtraFrameworkMolecule         yes
            CreateNumberOfMolecules        0
